TP1 Logique/cartes-PICHENOT-REY.cnf
c translation table for variable names: 
c     X_2_trefle -> 1
c     X_2_pique -> 2
c     X_1_trefle -> 3
c     X_4_trefle -> 4
c     X_1_carreau -> 5
c     X_2_carreau -> 6
c     X_3_carreau -> 7
c     X_3_trefle -> 8
c     X_2_coeur -> 9
c     X_3_coeur -> 10
c     X_4_coeur -> 11
c     X_1_coeur -> 12
c     X_4_carreau -> 13
c     X_1_pique -> 14
c     X_3_pique -> 15
c     X_4_pique -> 16
p cnf 16 40
-1 0
-2 0
-3 0
-4 5 6 7 0
-8 5 6 0
-1 5 0
-5 -9 0
-6 -10 0
-7 -11 0
-12 -6 0
-9 -7 0
-10 -13 0
-14 -2 0
-14 -15 0
-14 -16 0
-2 -15 0
-2 -16 0
-15 -16 0
-12 -9 0
-12 -10 0
-12 -11 0
-9 -10 0
-9 -11 0
-10 -11 0
-3 -1 0
-3 -8 0
-3 -4 0
-1 -8 0
-1 -4 0
-8 -4 0
-5 -6 0
-5 -7 0
-5 -13 0
-6 -7 0
-6 -13 0
-7 -13 0
14 3 5 12 0
2 1 6 9 0
15 8 7 10 0
16 4 13 11 0
