logique/TP1 Logique/cartes-PICHENOT-REY.sat
# indice 1 :
-X_2_trefle 
-X_2_pique

# indice 2 :
-X_1_trefle
-X_4_trefle X_1_carreau X_2_carreau X_3_carreau
-X_3_trefle X_1_carreau X_2_carreau
-X_2_trefle X_1_carreau

# indice 3 :
-X_1_carreau -X_2_coeur
-X_2_carreau -X_3_coeur
-X_3_carreau -X_4_coeur
-X_1_coeur -X_2_carreau
-X_2_coeur -X_3_carreau
-X_3_coeur -X_4_carreau

# il y a au plus un as de pique
-X_1_pique -X_2_pique
-X_1_pique -X_3_pique
-X_1_pique -X_4_pique
-X_2_pique -X_3_pique
-X_2_pique -X_4_pique
-X_3_pique -X_4_pique

# il y a au plus un as de coeur
-X_1_coeur -X_2_coeur
-X_1_coeur -X_3_coeur
-X_1_coeur -X_4_coeur
-X_2_coeur -X_3_coeur
-X_2_coeur -X_4_coeur
-X_3_coeur -X_4_coeur

# il y a au plus un as de trefle
-X_1_trefle -X_2_trefle
-X_1_trefle -X_3_trefle
-X_1_trefle -X_4_trefle
-X_2_trefle -X_3_trefle
-X_2_trefle -X_4_trefle
-X_3_trefle -X_4_trefle

# il y a au plus un as de carreau
-X_1_carreau -X_2_carreau
-X_1_carreau -X_3_carreau
-X_1_carreau -X_4_carreau
-X_2_carreau -X_3_carreau
-X_2_carreau -X_4_carreau
-X_3_carreau -X_4_carreau

# chaque emplacement à une carte
X_1_pique  X_1_trefle  X_1_carreau  X_1_coeur
X_2_pique  X_2_trefle  X_2_carreau  X_2_coeur
X_3_pique  X_3_trefle  X_3_carreau  X_3_coeur
X_4_pique  X_4_trefle  X_4_carreau  X_4_coeur
